objective value:                                11201
t_x_0                                               1 	(obj:22)
t_x_3                                               1 	(obj:11)
t_x_6                                               1 	(obj:0)
t_x_7                                               1 	(obj:2)
t_x_12                                              1 	(obj:57)
t_x_20                                              1 	(obj:27)
t_x_22                                              1 	(obj:24)
t_x_30                                              1 	(obj:13)
t_x_34                                              1 	(obj:31)
t_x_39                                              1 	(obj:16)
t_x_41                                              1 	(obj:24)
t_x_42                                              1 	(obj:14)
t_x_44                                              1 	(obj:16)
t_x_46                                              1 	(obj:34)
t_x_53                                              1 	(obj:17)
t_x_54                                              1 	(obj:53)
t_x_55                                              1 	(obj:75)
t_x_58                                              1 	(obj:2)
t_x_59                                              1 	(obj:51)
t_x_65                                              1 	(obj:23)
t_x_70                                              1 	(obj:29)
t_x_75                                              1 	(obj:24)
t_x_84                                              1 	(obj:2)
t_x_85                                              1 	(obj:0)
t_x_87                                              1 	(obj:49)
t_x_88                                              1 	(obj:7)
t_x_89                                              1 	(obj:33)
t_x_91                                              1 	(obj:35)
t_x_92                                              1 	(obj:19)
t_x_96                                              1 	(obj:6)
t_x_98                                              1 	(obj:22)
t_x_101                                             1 	(obj:55)
t_x_108                                             1 	(obj:15)
t_x_111                                             1 	(obj:0)
t_x_113                                             1 	(obj:23)
t_x_114                                             1 	(obj:5)
t_x_117                                             1 	(obj:14)
t_x_120                                             1 	(obj:40)
t_x_123                                             1 	(obj:56)
t_x_127                                             1 	(obj:4)
t_x_131                                             1 	(obj:4)
t_x_137                                             1 	(obj:33)
t_x_143                                             1 	(obj:47)
t_x_152                                             1 	(obj:26)
t_x_153                                             1 	(obj:49)
t_x_161                                             1 	(obj:10)
t_x_166                                             1 	(obj:29)
t_x_167                                             1 	(obj:18)
t_x_170                                             1 	(obj:10)
t_x_172                                             1 	(obj:2)
t_x_179                                             1 	(obj:8)
t_x_182                                             1 	(obj:0)
t_x_183                                             1 	(obj:15)
t_x_185                                             1 	(obj:12)
t_x_193                                             1 	(obj:61)
t_x_199                                             1 	(obj:13)
t_x_206                                             1 	(obj:33)
t_x_212                                             1 	(obj:2)
t_x_217                                             1 	(obj:18)
t_x_224                                             1 	(obj:35)
t_x_225                                             1 	(obj:6)
t_x_228                                             1 	(obj:24)
t_x_235                                             1 	(obj:27)
t_x_238                                             1 	(obj:38)
t_x_239                                             1 	(obj:31)
t_x_241                                             1 	(obj:42)
t_x_243                                             1 	(obj:11)
t_x_245                                             1 	(obj:17)
t_x_246                                             1 	(obj:8)
t_x_247                                             1 	(obj:15)
t_x_249                                             1 	(obj:51)
t_x_261                                             1 	(obj:56)
t_x_262                                             1 	(obj:11)
t_x_264                                             1 	(obj:15)
t_x_266                                             1 	(obj:9)
t_x_269                                             1 	(obj:7)
t_x_274                                             1 	(obj:10)
t_x_276                                             1 	(obj:28)
t_x_278                                             1 	(obj:36)
t_x_280                                             1 	(obj:32)
t_x_284                                             1 	(obj:2)
t_x_287                                             1 	(obj:1)
t_x_290                                             1 	(obj:0)
t_x_291                                             1 	(obj:5)
t_x_292                                             1 	(obj:27)
t_x_293                                             1 	(obj:15)
t_x_295                                             1 	(obj:34)
t_x_296                                             1 	(obj:2)
t_x_299                                             1 	(obj:3)
t_x_301                                             1 	(obj:13)
t_x_303                                             1 	(obj:42)
t_x_304                                             1 	(obj:6)
t_x_310                                             1 	(obj:8)
t_x_313                                             1 	(obj:31)
t_x_315                                             1 	(obj:20)
t_x_318                                             1 	(obj:4)
t_x_319                                             1 	(obj:23)
t_x_321                                             1 	(obj:15)
t_x_325                                             1 	(obj:27)
t_x_327                                             1 	(obj:21)
t_x_332                                             1 	(obj:5)
t_x_337                                             1 	(obj:0)
t_x_340                                             1 	(obj:18)
t_x_344                                             1 	(obj:36)
t_x_354                                             1 	(obj:4)
t_x_360                                             1 	(obj:1)
t_x_364                                             1 	(obj:21)
t_x_367                                             1 	(obj:26)
t_x_369                                             1 	(obj:14)
t_x_372                                             1 	(obj:5)
t_x_381                                             1 	(obj:17)
t_x_390                                             1 	(obj:42)
t_x_396                                             1 	(obj:45)
t_x_399                                             1 	(obj:63)
t_x_408                                             1 	(obj:20)
t_x_414                                             1 	(obj:48)
t_x_416                                             1 	(obj:13)
t_x_418                                             1 	(obj:42)
t_x_419                                             1 	(obj:39)
t_x_422                                             1 	(obj:10)
t_x_424                                             1 	(obj:25)
t_x_430                                             1 	(obj:23)
t_x_433                                             1 	(obj:16)
t_x_434                                             1 	(obj:17)
t_x_436                                             1 	(obj:6)
t_x_439                                             1 	(obj:13)
t_x_440                                             1 	(obj:22)
t_x_443                                             1 	(obj:47)
t_x_447                                             1 	(obj:29)
t_x_449                                             1 	(obj:26)
t_x_454                                             1 	(obj:1)
t_x_455                                             1 	(obj:29)
t_x_456                                             1 	(obj:0)
t_x_457                                             1 	(obj:21)
t_x_458                                             1 	(obj:16)
t_x_459                                             1 	(obj:3)
t_x_464                                             1 	(obj:5)
t_x_465                                             1 	(obj:26)
t_x_466                                             1 	(obj:33)
t_x_469                                             1 	(obj:53)
t_x_472                                             1 	(obj:6)
t_x_476                                             1 	(obj:3)
t_x_477                                             1 	(obj:8)
t_x_489                                             1 	(obj:33)
t_x_494                                             1 	(obj:9)
t_x_496                                             1 	(obj:35)
t_x_498                                             1 	(obj:75)
t_x_500                                             1 	(obj:10)
t_x_504                                             1 	(obj:5)
t_x_508                                             1 	(obj:7)
t_x_517                                             1 	(obj:13)
t_x_518                                             1 	(obj:11)
t_x_520                                             1 	(obj:1)
t_x_524                                             1 	(obj:91)
t_x_528                                             1 	(obj:21)
t_x_531                                             1 	(obj:11)
t_x_534                                             1 	(obj:10)
t_x_540                                             1 	(obj:3)
t_x_541                                             1 	(obj:4)
t_x_545                                             1 	(obj:57)
t_x_548                                             1 	(obj:4)
t_x_549                                             1 	(obj:30)
t_x_550                                             1 	(obj:22)
t_x_553                                             1 	(obj:28)
t_x_556                                             1 	(obj:1)
t_x_558                                             1 	(obj:99)
t_x_559                                             1 	(obj:27)
t_x_565                                             1 	(obj:4)
t_x_567                                             1 	(obj:6)
t_x_571                                             1 	(obj:5)
t_x_572                                             1 	(obj:23)
t_x_575                                             1 	(obj:4)
t_x_579                                             1 	(obj:21)
t_x_582                                             1 	(obj:22)
t_x_584                                             1 	(obj:34)
t_x_586                                             1 	(obj:8)
t_x_589                                             1 	(obj:27)
t_x_593                                             1 	(obj:29)
t_x_595                                             1 	(obj:22)
t_x_597                                             1 	(obj:5)
t_x_599                                             1 	(obj:18)
t_x_610                                             1 	(obj:4)
t_x_614                                             1 	(obj:6)
t_x_618                                             1 	(obj:5)
t_x_625                                             1 	(obj:4)
t_x_627                                             1 	(obj:48)
t_x_628                                             1 	(obj:40)
t_x_631                                             1 	(obj:11)
t_x_633                                             1 	(obj:40)
t_x_634                                             1 	(obj:60)
t_x_636                                             1 	(obj:1)
t_x_645                                             1 	(obj:14)
t_x_646                                             1 	(obj:29)
t_x_649                                             1 	(obj:25)
t_x_652                                             1 	(obj:18)
t_x_655                                             1 	(obj:22)
t_x_659                                             1 	(obj:10)
t_x_664                                             1 	(obj:13)
t_x_666                                             1 	(obj:37)
t_x_668                                             1 	(obj:49)
t_x_682                                             1 	(obj:4)
t_x_685                                             1 	(obj:21)
t_x_686                                             1 	(obj:35)
t_x_689                                             1 	(obj:20)
t_x_690                                             1 	(obj:18)
t_x_692                                             1 	(obj:5)
t_x_694                                             1 	(obj:23)
t_x_696                                             1 	(obj:9)
t_x_699                                             1 	(obj:30)
t_x_710                                             1 	(obj:25)
t_x_714                                             1 	(obj:13)
t_x_715                                             1 	(obj:56)
t_x_717                                             1 	(obj:23)
t_x_720                                             1 	(obj:15)
t_x_721                                             1 	(obj:23)
t_x_723                                             1 	(obj:29)
t_x_724                                             1 	(obj:17)
t_x_725                                             1 	(obj:11)
t_x_730                                             1 	(obj:15)
t_x_732                                             1 	(obj:36)
t_x_736                                             1 	(obj:11)
t_x_738                                             1 	(obj:16)
t_x_742                                             1 	(obj:7)
t_x_746                                             1 	(obj:28)
t_x_748                                             1 	(obj:13)
t_x_751                                             1 	(obj:3)
t_x_752                                             1 	(obj:1)
t_x_756                                             1 	(obj:33)
t_x_759                                             1 	(obj:18)
t_x_764                                             1 	(obj:12)
t_x_765                                             1 	(obj:24)
t_x_767                                             1 	(obj:42)
t_x_771                                             1 	(obj:34)
t_x_772                                             1 	(obj:6)
t_x_774                                             1 	(obj:2)
t_x_776                                             1 	(obj:26)
t_x_778                                             1 	(obj:3)
t_x_780                                             1 	(obj:10)
t_x_797                                             1 	(obj:24)
t_x_803                                             1 	(obj:16)
t_x_805                                             1 	(obj:8)
t_x_807                                             1 	(obj:29)
t_x_809                                             1 	(obj:2)
t_x_816                                             1 	(obj:12)
t_x_820                                             1 	(obj:1)
t_x_821                                             1 	(obj:36)
t_x_824                                             1 	(obj:1)
t_x_826                                             1 	(obj:9)
t_x_829                                             1 	(obj:28)
t_x_832                                             1 	(obj:13)
t_x_834                                             1 	(obj:7)
t_x_835                                             1 	(obj:3)
t_x_838                                             1 	(obj:36)
t_x_839                                             1 	(obj:1)
t_x_843                                             1 	(obj:21)
t_x_849                                             1 	(obj:3)
t_x_852                                             1 	(obj:42)
t_x_853                                             1 	(obj:0)
t_x_856                                             1 	(obj:12)
t_x_857                                             1 	(obj:20)
t_x_858                                             1 	(obj:18)
t_x_861                                             1 	(obj:6)
t_x_862                                             1 	(obj:19)
t_x_869                                             1 	(obj:0)
t_x_870                                             1 	(obj:5)
t_x_874                                             1 	(obj:24)
t_x_878                                             1 	(obj:1)
t_x_879                                             1 	(obj:14)
t_x_881                                             1 	(obj:34)
t_x_885                                             1 	(obj:4)
t_x_886                                             1 	(obj:2)
t_x_887                                             1 	(obj:35)
t_x_888                                             1 	(obj:21)
t_x_893                                             1 	(obj:0)
t_x_896                                             1 	(obj:1)
t_x_898                                             1 	(obj:3)
t_x_901                                             1 	(obj:28)
t_x_905                                             1 	(obj:24)
t_x_907                                             1 	(obj:26)
t_x_914                                             1 	(obj:10)
t_x_915                                             1 	(obj:59)
t_x_921                                             1 	(obj:19)
t_x_927                                             1 	(obj:22)
t_x_935                                             1 	(obj:7)
t_x_940                                             1 	(obj:2)
t_x_945                                             1 	(obj:0)
t_x_949                                             1 	(obj:27)
t_x_951                                             1 	(obj:9)
t_x_952                                             1 	(obj:1)
t_x_954                                             1 	(obj:0)
t_x_955                                             1 	(obj:13)
t_x_959                                             1 	(obj:25)
t_x_960                                             1 	(obj:19)
t_x_967                                             1 	(obj:18)
t_x_972                                             1 	(obj:12)
t_x_975                                             1 	(obj:0)
t_x_980                                             1 	(obj:0)
t_x_984                                             1 	(obj:16)
t_x_989                                             1 	(obj:2)
t_x_991                                             1 	(obj:5)
t_x_995                                             1 	(obj:0)
t_x_996                                             1 	(obj:12)
t_x_1003                                            1 	(obj:34)
t_x_1004                                            1 	(obj:14)
t_x_1006                                            1 	(obj:12)
t_x_1012                                            1 	(obj:5)
t_x_1018                                            1 	(obj:15)
t_x_1020                                            1 	(obj:3)
t_x_1026                                            1 	(obj:22)
t_x_1028                                            1 	(obj:66)
t_x_1031                                            1 	(obj:40)
t_x_1039                                            1 	(obj:9)
t_x_1044                                            1 	(obj:26)
t_x_1048                                            1 	(obj:0)
t_x_1050                                            1 	(obj:35)
t_x_1055                                            1 	(obj:36)
t_x_1063                                            1 	(obj:38)
t_x_1065                                            1 	(obj:22)
t_x_1066                                            1 	(obj:8)
t_x_1071                                            1 	(obj:20)
t_x_1079                                            1 	(obj:4)
t_x_1080                                            1 	(obj:12)
t_x_1082                                            1 	(obj:6)
t_x_1084                                            1 	(obj:12)
t_x_1087                                            1 	(obj:11)
t_x_1088                                            1 	(obj:1)
t_x_1092                                            1 	(obj:17)
t_x_1097                                            1 	(obj:41)
t_x_1098                                            1 	(obj:41)
t_x_1099                                            1 	(obj:17)
t_x_1103                                            1 	(obj:12)
t_x_1104                                            1 	(obj:7)
t_x_1105                                            1 	(obj:40)
t_x_1107                                            1 	(obj:36)
t_x_1113                                            1 	(obj:10)
t_x_1115                                            1 	(obj:13)
t_x_1116                                            1 	(obj:45)
t_x_1117                                            1 	(obj:11)
t_x_1120                                            1 	(obj:13)
t_x_1122                                            1 	(obj:18)
t_x_1123                                            1 	(obj:0)
t_x_1124                                            1 	(obj:3)
t_x_1126                                            1 	(obj:19)
t_x_1129                                            1 	(obj:11)
t_x_1137                                            1 	(obj:1)
t_x_1138                                            1 	(obj:11)
t_x_1144                                            1 	(obj:14)
t_x_1149                                            1 	(obj:25)
t_x_1156                                            1 	(obj:25)
t_x_1157                                            1 	(obj:20)
t_x_1158                                            1 	(obj:11)
t_x_1159                                            1 	(obj:12)
t_x_1160                                            1 	(obj:20)
t_x_1161                                            1 	(obj:14)
t_x_1167                                            1 	(obj:3)
t_x_1168                                            1 	(obj:0)
t_x_1171                                            1 	(obj:12)
t_x_1172                                            1 	(obj:0)
t_x_1176                                            1 	(obj:7)
t_x_1179                                            1 	(obj:8)
t_x_1181                                            1 	(obj:9)
t_x_1184                                            1 	(obj:24)
t_x_1185                                            1 	(obj:13)
t_x_1187                                            1 	(obj:15)
t_x_1188                                            1 	(obj:2)
t_x_1191                                            1 	(obj:46)
t_x_1195                                            1 	(obj:14)
t_x_1196                                            1 	(obj:36)
t_x_1201                                            1 	(obj:13)
t_x_1202                                            1 	(obj:62)
t_x_1205                                            1 	(obj:0)
t_x_1206                                            1 	(obj:19)
t_x_1210                                            1 	(obj:6)
t_x_1215                                            1 	(obj:14)
t_x_1217                                            1 	(obj:23)
t_x_1222                                            1 	(obj:28)
t_x_1223                                            1 	(obj:0)
t_x_1226                                            1 	(obj:40)
t_x_1229                                            1 	(obj:2)
t_x_1230                                            1 	(obj:6)
t_x_1232                                            1 	(obj:14)
t_x_1234                                            1 	(obj:10)
t_x_1239                                            1 	(obj:18)
t_x_1240                                            1 	(obj:38)
t_x_1241                                            1 	(obj:1)
t_x_1243                                            1 	(obj:69)
t_x_1245                                            1 	(obj:21)
t_x_1247                                            1 	(obj:16)
t_x_1248                                            1 	(obj:2)
t_x_1254                                            1 	(obj:3)
t_x_1256                                            1 	(obj:3)
t_x_1257                                            1 	(obj:6)
t_x_1258                                            1 	(obj:47)
t_x_1259                                            1 	(obj:24)
t_x_1267                                            1 	(obj:13)
t_x_1268                                            1 	(obj:43)
t_x_1270                                            1 	(obj:41)
t_x_1279                                            1 	(obj:22)
t_x_1280                                            1 	(obj:6)
t_x_1283                                            1 	(obj:3)
t_x_1289                                            1 	(obj:13)
t_x_1294                                            1 	(obj:24)
t_x_1295                                            1 	(obj:8)
t_x_1296                                            1 	(obj:6)
t_x_1304                                            1 	(obj:20)
t_x_1306                                            1 	(obj:36)
t_x_1308                                            1 	(obj:62)
t_x_1309                                            1 	(obj:17)
t_x_1318                                            1 	(obj:9)
t_x_1321                                            1 	(obj:6)
t_x_1326                                            1 	(obj:3)
t_x_1328                                            1 	(obj:17)
t_x_1329                                            1 	(obj:38)
t_x_1331                                            1 	(obj:11)
t_x_1337                                            1 	(obj:2)
t_x_1338                                            1 	(obj:19)
t_x_1342                                            1 	(obj:11)
t_x_1344                                            1 	(obj:16)
t_x_1352                                            1 	(obj:1)
t_x_1357                                            1 	(obj:12)
t_x_1360                                            1 	(obj:0)
t_x_1361                                            1 	(obj:24)
t_x_1363                                            1 	(obj:27)
t_x_1365                                            1 	(obj:9)
t_x_1370                                            1 	(obj:17)
t_x_1376                                            1 	(obj:11)
t_x_1380                                            1 	(obj:41)
t_x_1383                                            1 	(obj:28)
t_x_1384                                            1 	(obj:7)
t_x_1386                                            1 	(obj:39)
t_x_1387                                            1 	(obj:18)
t_x_1405                                            1 	(obj:15)
t_x_1406                                            1 	(obj:12)
t_x_1407                                            1 	(obj:1)
t_x_1408                                            1 	(obj:55)
t_x_1409                                            1 	(obj:8)
t_x_1411                                            1 	(obj:5)
t_x_1417                                            1 	(obj:19)
t_x_1427                                            1 	(obj:30)
t_x_1428                                            1 	(obj:17)
t_x_1429                                            1 	(obj:49)
t_x_1433                                            1 	(obj:15)
t_x_1436                                            1 	(obj:30)
t_x_1439                                            1 	(obj:72)
t_x_1444                                            1 	(obj:37)
t_x_1445                                            1 	(obj:21)
t_x_1450                                            1 	(obj:3)
t_x_1453                                            1 	(obj:2)
t_x_1459                                            1 	(obj:33)
t_x_1462                                            1 	(obj:7)
t_x_1463                                            1 	(obj:6)
t_x_1465                                            1 	(obj:8)
t_x_1466                                            1 	(obj:20)
t_x_1469                                            1 	(obj:5)
t_x_1470                                            1 	(obj:2)
t_x_1474                                            1 	(obj:9)
t_x_1478                                            1 	(obj:14)
t_x_1479                                            1 	(obj:9)
t_x_1484                                            1 	(obj:3)
t_x_1485                                            1 	(obj:13)
t_x_1488                                            1 	(obj:32)
t_x_1492                                            1 	(obj:4)
t_x_1499                                            1 	(obj:51)
t_x_1501                                            1 	(obj:22)
t_x_1504                                            1 	(obj:9)
t_x_1508                                            1 	(obj:17)
t_x_1517                                            1 	(obj:13)
t_x_1525                                            1 	(obj:11)
t_x_1528                                            1 	(obj:27)
t_x_1531                                            1 	(obj:2)
t_x_1532                                            1 	(obj:24)
t_x_1537                                            1 	(obj:7)
t_x_1539                                            1 	(obj:11)
t_x_1542                                            1 	(obj:32)
t_x_1544                                            1 	(obj:4)
t_x_1545                                            1 	(obj:30)
t_x_1547                                            1 	(obj:11)
t_x_1552                                            1 	(obj:29)
t_x_1559                                            1 	(obj:6)
t_x_1560                                            1 	(obj:25)
t_x_1562                                            1 	(obj:5)
t_x_1564                                            1 	(obj:0)
t_x_1569                                            1 	(obj:35)
t_x_1575                                            1 	(obj:9)
t_x_1581                                            1 	(obj:14)
t_x_1584                                            1 	(obj:3)
t_x_1587                                            1 	(obj:0)
t_x_1590                                            1 	(obj:5)
t_x_1592                                            1 	(obj:18)
t_x_1593                                            1 	(obj:4)
t_x_1595                                            1 	(obj:3)
t_x_1596                                            1 	(obj:55)
t_x_1598                                            1 	(obj:3)
t_x_1605                                            1 	(obj:14)
t_x_1607                                            1 	(obj:36)
t_x_1611                                            1 	(obj:25)
t_x_1613                                            1 	(obj:3)
t_x_1619                                            1 	(obj:45)
t_x_1624                                            1 	(obj:6)
t_x_1627                                            1 	(obj:25)
t_x_1630                                            1 	(obj:22)
t_x_1632                                            1 	(obj:1)
t_x_1637                                            1 	(obj:19)
t_x_1645                                            1 	(obj:2)
t_x_1649                                            1 	(obj:37)
t_x_1652                                            1 	(obj:2)
t_x_1656                                            1 	(obj:3)
t_x_1669                                            1 	(obj:20)
t_x_1670                                            1 	(obj:57)
t_x_1673                                            1 	(obj:26)
t_x_1676                                            1 	(obj:28)
t_x_1678                                            1 	(obj:30)
t_x_1679                                            1 	(obj:38)
t_x_1683                                            1 	(obj:8)
t_x_1685                                            1 	(obj:10)
t_x_1695                                            1 	(obj:27)
t_x_1698                                            1 	(obj:2)
t_x_1700                                            1 	(obj:8)
t_x_1702                                            1 	(obj:22)
t_x_1705                                            1 	(obj:13)
t_x_1707                                            1 	(obj:44)
t_x_1715                                            1 	(obj:55)
t_x_1716                                            1 	(obj:8)
t_x_1719                                            1 	(obj:12)
t_x_1720                                            1 	(obj:45)
t_x_1726                                            1 	(obj:24)
t_x_1731                                            1 	(obj:11)
t_x_1741                                            1 	(obj:3)
t_x_1744                                            1 	(obj:23)
t_x_1755                                            1 	(obj:3)
t_x_1757                                            1 	(obj:8)
t_x_1767                                            1 	(obj:31)
t_x_1770                                            1 	(obj:29)
t_x_1773                                            1 	(obj:23)
t_x_1774                                            1 	(obj:24)
t_x_1778                                            1 	(obj:2)
t_x_1780                                            1 	(obj:2)
t_x_1782                                            1 	(obj:20)
t_x_1790                                            1 	(obj:0)
t_x_1793                                            1 	(obj:16)
t_x_1795                                            1 	(obj:9)
t_x_1797                                            1 	(obj:7)
t_x_1798                                            1 	(obj:13)
t_x_1800                                            1 	(obj:6)
t_x_1806                                            1 	(obj:55)
t_x_1811                                            1 	(obj:4)
t_x_1814                                            1 	(obj:0)
t_x_1816                                            1 	(obj:20)
t_x_1817                                            1 	(obj:32)
t_x_1821                                            1 	(obj:43)
t_x_1822                                            1 	(obj:26)
t_x_1828                                            1 	(obj:6)
t_x_1831                                            1 	(obj:40)
t_x_1832                                            1 	(obj:43)
t_x_1833                                            1 	(obj:21)
t_x_1836                                            1 	(obj:6)
t_x_1841                                            1 	(obj:2)
t_x_1843                                            1 	(obj:14)
t_x_1844                                            1 	(obj:17)
t_x_1847                                            1 	(obj:6)
t_x_1849                                            1 	(obj:14)
t_x_1859                                            1 	(obj:1)
t_x_1861                                            1 	(obj:16)
t_x_1866                                            1 	(obj:36)
t_x_1872                                            1 	(obj:1)
t_x_1874                                            1 	(obj:7)
t_x_1880                                            1 	(obj:14)
t_x_1883                                            1 	(obj:11)
t_x_1886                                            1 	(obj:9)
t_x_1889                                            1 	(obj:17)
t_x_1895                                            1 	(obj:33)
t_x_1898                                            1 	(obj:3)
t_x_1899                                            1 	(obj:28)
t_x_1908                                            1 	(obj:3)
t_x_1909                                            1 	(obj:38)
t_x_1911                                            1 	(obj:12)
t_x_1913                                            1 	(obj:47)
t_x_1914                                            1 	(obj:4)
t_x_1917                                            1 	(obj:28)
t_x_1920                                            1 	(obj:14)
t_x_1921                                            1 	(obj:34)
t_x_1924                                            1 	(obj:18)
t_x_1925                                            1 	(obj:18)
t_x_1928                                            1 	(obj:2)
t_x_1929                                            1 	(obj:4)
t_x_1942                                            1 	(obj:5)
t_x_1943                                            1 	(obj:20)
t_x_1948                                            1 	(obj:44)
t_x_1952                                            1 	(obj:26)
t_x_1953                                            1 	(obj:2)
t_x_1957                                            1 	(obj:24)
t_x_1961                                            1 	(obj:19)
t_x_1971                                            1 	(obj:23)
t_x_1972                                            1 	(obj:13)
t_x_1975                                            1 	(obj:8)
t_x_1978                                            1 	(obj:9)
t_x_1979                                            1 	(obj:6)
t_x_1980                                            1 	(obj:3)
t_x_1989                                            1 	(obj:52)
